proyfinal/src/viki/013/experimentInOfficeAgust.take6.output/d2b4b038-4d85-427a-be73-75b29a8deec5.als.dat
{'cnf.clauses': '118081',
 'cnf.totvars': '69608',
 'conflict literals': '49',
 'conflicts': '21',
 'decisions': '9538',
 'memused.mb': '14.99',
 'outcome': 'UNSAT',
 'propagations': '35897',
 'restarts': '1',
 'solver.msecs': 29,
 'task.msecs': 140}
