proyfinal/src/viki/013/experimentInOfficeAgust.take6.output/d2b4b038-4d85-427a-be73-75b29a8deec5.als.out
Reading from standard input... Use '--help' for help.
============================[ Problem Statistics ]=============================
|                                                                             |
|  Number of variables:         69608                                         |
|  Number of clauses:          118081                                         |
|  Parse time:                   0.02 s                                       |
|                                                                             |
============================[ Search Statistics ]==============================
| Conflicts |          ORIGINAL         |          LEARNT          | Progress |
|           |    Vars  Clauses Literals |    Limit  Clauses Lit/Cl |          |
===============================================================================
===============================================================================
restarts              : 1
conflicts             : 21             (706 /sec)
decisions             : 9538           (0.00 % random) (320864 /sec)
propagations          : 35897          (1207596 /sec)
conflict literals     : 49             (3.92 % deleted)
Memory used           : 14.99 MB
CPU time              : 0.029726 s

UNSATISFIABLE
